problem_generation/data/GISP/train/er_n=63_m=1130_p=0.60_SET2_setparam=100.00_alpha=0.50_394.lp
maximize
OBJ:100x0 + 100x1 + 100x2 + 100x3 + 100x4 + 100x5 + 100x6 + 100x7 + 100x8 + 100x9 + 100x10 + 100x11 + 100x12 + 100x13 + 100x14 + 100x15 + 100x16 + 100x17 + 100x18 + 100x19 + 100x20 + 100x21 + 100x22 + 100x23 + 100x24 + 100x25 + 100x26 + 100x27 + 100x28 + 100x29 + 100x30 + 100x31 + 100x32 + 100x33 + 100x34 + 100x35 + 100x36 + 100x37 + 100x38 + 100x39 + 100x40 + 100x41 + 100x42 + 100x43 + 100x44 + 100x45 + 100x46 + 100x47 + 100x48 + 100x49 + 100x50 + 100x51 + 100x52 + 100x53 + 100x54 + 100x55 + 100x56 + 100x57 + 100x58 + 100x59 + 100x60 + 100x61 + 100x62 - y36_62 - y47_62 - y28_58 - y18_44 - y8_9 - y0_5 - y40_41 - y8_18 - y21_37 - y48_54 - y29_50 - y29_59 - y40_59 - y21_55 - y10_27 - y41_51 - y33_47 - y10_54 - y33_56 - y44_56 - y14_15 - y14_24 - y14_33 - y15_25 - y17_44 - y28_53 - y9_49 - y5_60 - y28_62 - y9_58 - y6_34 - y48_49 - y21_32 - y6_43 - y40_45 - y6_52 - y29_54 - y40_54 - y6_61 - y10_31 - y2_27 - y22_23 - y51_59 - y2_54 - y3_37 - y14_37 - y55_56 - y28_39 - y7_16 - y47_52 - y28_57 - y29_40 - y21_36 - y21_45 - y40_58 - y21_54 - y2_13 - y39_62 - y2_22 - y2_31 - y3_5 - y32_41 - y51_54 - y43_50 - y24_46 - y3_23 - y14_32 - y17_34 - y28_34 - y9_30 - y17_43 - y36_56 - y9_39 - y6_15 - y9_48 - y17_61 - y9_57 - y29_35 - y6_42 - y21_49 - y10_12 - y31_53 - y10_30 - y13_32 - y24_41 - y3_18 - y16_37 - y13_50 - y1_57 - y35_59 - y28_29 - y9_34 - y5_45 - y17_47 - y9_43 - y28_56 - y6_28 - y27_60 - y6_37 - y42_58 - y6_46 - y39_43 - y2_3 - y2_12 - y20_48 - y10_25 - y31_48 - y2_30 - y12_62 - y3_4 - y4_58 - y1_34 - y16_32 - y16_41 - y16_50 - y5_22 - y9_20 - y9_29 - y28_42 - y5_58 - y58_61 - y6_32 - y42_53 - y11_56 - y20_43 - y2_16 - y12_48 - y20_61 - y4_53 - y32_35 - y1_29 - y35_40 - y16_36 - y24_49 - y5_8 - y9_15 - y38_51 - y49_60 - y5_35 - y30_46 - y27_59 - y8_55 - y0_51 - y0_60 - y20_56 - y31_56 - y13_17 - y1_24 - y53_62 - y32_39 - y1_33 - y24_35 - y16_31 - y13_44 - y1_51 - y16_49 - y17_23 - y46_59 - y9_19 - y26_53 - y15_62 - y26_62 - y6_13 - y8_32 - y27_45 - y8_41 - y27_54 - y0_37 - y0_46 - y20_24 - y20_42 - y1_10 - y12_56 - y1_19 - y4_52 - y16_17 - y13_30 - y34_62 - y45_62 - y16_35 - y46_54 - y26_48 - y49_59 - y18_53 - y18_62 - y8_27 - y27_40 - y11_32 - y8_45 - y30_45 - y27_58 - y0_41 - y11_41 - y8_54 - y19_54 - y30_54 - y0_50 - y11_50 - y12_15 - y20_28 - y4_11 - y0_59 - y42_56 - y52_60 - y4_29 - y12_42 - y34_39 - y45_48 - y1_23 - y24_25 - y16_21 - y34_57 - y15_34 - y5_11 - y38_45 - y57_58 - y26_52 - y18_57 - y19_31 - y0_27 - y27_53 - y11_36 - y30_49 - y30_58 - y0_54 - y31_32 - y44_60 - y12_37 - y4_33 - y34_43 - y1_18 - y34_52 - y3_46 - y22_59 - y3_55 - y15_29 - y26_29 - y5_6 - y18_52 - y8_26 - y0_22 - y8_35 - y19_35 - y30_35 - y0_40 - y12_14 - y4_10 - y10_53 - y44_55 - y2_58 - y25_60 - y34_38 - y34_47 - y45_47 - y37_43 - y22_54 - y45_56 - y3_50 - y15_51 - y7_47 - y0_8 - y11_26 - y40_62 - y0_35 - y11_35 - y41_45 - y4_5 - y41_54 - y25_37 - y52_54 - y4_14 - y44_50 - y10_57 - y2_53 - y22_58 - y26_37 - y18_33 - y7_42 - y29_39 - y21_44 - y40_57 - y33_36 - y25_32 - y33_45 - y52_58 - y33_54 - y3_13 - y2_57 - y25_59 - y22_44 - y37_42 - y22_53 - y7_10 - y36_46 - y15_23 - y7_19 - y26_32 - y17_60 - y28_60 - y18_37 - y9_56 - y6_41 - y48_56 - y0_16 - y29_52 - y40_52 - y40_61 - y2_34 - y33_49 - y3_8 - y25_54 - y2_61 - y43_62 - y24_58 - y3_44 - y14_44 - y7_14 - y18_23 - y17_55 - y28_55 - y9_51 - y21_25 - y0_2 - y29_47 - y6_54 - y29_56 - y10_15 - y21_61 - y10_24 - y54_58 - y2_29 - y25_31 - y2_38 - y10_51 - y32_48 - y14_21 - y43_57 - y13_53 - y35_53 - y24_62 - y28_41 - y17_50 - y9_46 - y17_59 - y28_59 - y6_40 - y6_49 - y39_55 - y25_26 - y54_62 - y25_35 - y3_7 - y3_16 - y43_52 - y35_48 - y32_61 - y43_61 - y35_57 - y16_62 - y9_23 - y6_8 - y28_54 - y9_59 - y50_60 - y20_46 - y10_23 - y20_55 - y2_28 - y43_47 - y51_60 - y35_43 - y13_52 - y16_48 - y13_61 - y24_61 - y35_61 - y5_20 - y9_18 - y5_29 - y5_38 - y5_47 - y6_21 - y6_30 - y27_62 - y6_39 - y19_58 - y42_60 - y2_5 - y10_18 - y39_54 - y20_50 - y23_46 - y4_51 - y13_29 - y1_36 - y32_51 - y13_47 - y16_43 - y13_56 - y5_15 - y17_26 - y57_62 - y38_58 - y17_35 - y28_35 - y42_46 - y21_23 - y20_27 - y10_13 - y12_32 - y39_49 - y31_45 - y2_18 - y20_54 - y31_54 - y23_50 - y12_59 - y16_29 - y24_51 - y9_17 - y26_60 - y5_37 - y27_34 - y19_39 - y27_52 - y42_50 - y0_44 - y11_44 - y30_57 - y20_22 - y42_59 - y39_44 - y23_27 - y2_4 - y31_49 - y1_17 - y13_19 - y4_50 - y4_59 - y34_60 - y13_37 - y24_37 - y5_23 - y46_61 - y57_61 - y9_21 - y38_57 - y49_57 - y7_51 - y18_60 - y19_34 - y0_48 - y11_48 - y8_61 - y12_13 - y20_26 - y20_35 - y4_18 - y12_49 - y1_12 - y4_45 - y1_39 - y3_58 - y5_9 - y46_47 - y15_41 - y9_16 - y18_46 - y15_59 - y18_55 - y19_20 - y8_29 - y27_42 - y30_38 - y8_47 - y0_43 - y30_56 - y0_52 - y12_17 - y52_62 - y12_35 - y1_16 - y45_50 - y22_57 - y45_59 - y37_55 - y3_62 - y14_62 - y26_45 - y15_54 - y38_56 - y49_56 - y7_50 - y8_15 - y0_11 - y19_33 - y30_33 - y11_29 - y11_38 - y20_25 - y4_8 - y52_57 - y23_30 - y4_35 - y34_36 - y1_20 - y3_39 - y53_58 - y22_52 - y45_54 - y14_57 - y15_22 - y18_36 - y7_45 - y18_45 - y15_58 - y0_6 - y27_32 - y19_28 - y11_24 - y8_37 - y30_37 - y11_33 - y41_43 - y33_39 - y25_44 - y25_53 - y25_62 - y3_43 - y56_58 - y37_54 - y15_17 - y14_61 - y15_26 - y55_62 - y7_22 - y18_40 - y8_14 - y40_46 - y6_53 - y11_19 - y40_55 - y0_28 - y25_39 - y33_52 - y44_52 - y25_48 - y44_61 - y22_24 - y14_20 - y22_33 - y14_38 - y22_51 - y14_47 - y3_56
 Subject to
C1: x0+x2-y0_2 <=1 
C2: x0+x4 <=1 
C3: x0+x5-y0_5 <=1 
C4: x0+x6-y0_6 <=1 
C5: x0+x8-y0_8 <=1 
C6: x0+x9 <=1 
C7: x0+x11-y0_11 <=1 
C8: x0+x16-y0_16 <=1 
C9: x0+x17 <=1 
C10: x0+x22-y0_22 <=1 
C11: x0+x23 <=1 
C12: x0+x24 <=1 
C13: x0+x25 <=1 
C14: x0+x26 <=1 
C15: x0+x27-y0_27 <=1 
C16: x0+x28-y0_28 <=1 
C17: x0+x29 <=1 
C18: x0+x31 <=1 
C19: x0+x33 <=1 
C20: x0+x34 <=1 
C21: x0+x35-y0_35 <=1 
C22: x0+x37-y0_37 <=1 
C23: x0+x39 <=1 
C24: x0+x40-y0_40 <=1 
C25: x0+x41-y0_41 <=1 
C26: x0+x43-y0_43 <=1 
C27: x0+x44-y0_44 <=1 
C28: x0+x46-y0_46 <=1 
C29: x0+x47 <=1 
C30: x0+x48-y0_48 <=1 
C31: x0+x49 <=1 
C32: x0+x50-y0_50 <=1 
C33: x0+x51-y0_51 <=1 
C34: x0+x52-y0_52 <=1 
C35: x0+x53 <=1 
C36: x0+x54-y0_54 <=1 
C37: x0+x58 <=1 
C38: x0+x59-y0_59 <=1 
C39: x0+x60-y0_60 <=1 
C40: x0+x62 <=1 
C41: x1+x4 <=1 
C42: x1+x8 <=1 
C43: x1+x10-y1_10 <=1 
C44: x1+x11 <=1 
C45: x1+x12-y1_12 <=1 
C46: x1+x16-y1_16 <=1 
C47: x1+x17-y1_17 <=1 
C48: x1+x18-y1_18 <=1 
C49: x1+x19-y1_19 <=1 
C50: x1+x20-y1_20 <=1 
C51: x1+x22 <=1 
C52: x1+x23-y1_23 <=1 
C53: x1+x24-y1_24 <=1 
C54: x1+x26 <=1 
C55: x1+x27 <=1 
C56: x1+x28 <=1 
C57: x1+x29-y1_29 <=1 
C58: x1+x33-y1_33 <=1 
C59: x1+x34-y1_34 <=1 
C60: x1+x35 <=1 
C61: x1+x36-y1_36 <=1 
C62: x1+x37 <=1 
C63: x1+x38 <=1 
C64: x1+x39-y1_39 <=1 
C65: x1+x40 <=1 
C66: x1+x42 <=1 
C67: x1+x50 <=1 
C68: x1+x51-y1_51 <=1 
C69: x1+x52 <=1 
C70: x1+x53 <=1 
C71: x1+x55 <=1 
C72: x1+x57-y1_57 <=1 
C73: x1+x58 <=1 
C74: x1+x59 <=1 
C75: x1+x60 <=1 
C76: x1+x61 <=1 
C77: x2+x3-y2_3 <=1 
C78: x2+x4-y2_4 <=1 
C79: x2+x5-y2_5 <=1 
C80: x2+x6 <=1 
C81: x2+x10 <=1 
C82: x2+x11 <=1 
C83: x2+x12-y2_12 <=1 
C84: x2+x13-y2_13 <=1 
C85: x2+x14 <=1 
C86: x2+x16-y2_16 <=1 
C87: x2+x17 <=1 
C88: x2+x18-y2_18 <=1 
C89: x2+x22-y2_22 <=1 
C90: x2+x23 <=1 
C91: x2+x24 <=1 
C92: x2+x25 <=1 
C93: x2+x27-y2_27 <=1 
C94: x2+x28-y2_28 <=1 
C95: x2+x29-y2_29 <=1 
C96: x2+x30-y2_30 <=1 
C97: x2+x31-y2_31 <=1 
C98: x2+x32 <=1 
C99: x2+x34-y2_34 <=1 
C100: x2+x36 <=1 
C101: x2+x37 <=1 
C102: x2+x38-y2_38 <=1 
C103: x2+x39 <=1 
C104: x2+x44 <=1 
C105: x2+x47 <=1 
C106: x2+x48 <=1 
C107: x2+x49 <=1 
C108: x2+x50 <=1 
C109: x2+x51 <=1 
C110: x2+x53-y2_53 <=1 
C111: x2+x54-y2_54 <=1 
C112: x2+x57-y2_57 <=1 
C113: x2+x58-y2_58 <=1 
C114: x2+x59 <=1 
C115: x2+x61-y2_61 <=1 
C116: x2+x62 <=1 
C117: x3+x4-y3_4 <=1 
C118: x3+x5-y3_5 <=1 
C119: x3+x7-y3_7 <=1 
C120: x3+x8-y3_8 <=1 
C121: x3+x13-y3_13 <=1 
C122: x3+x15 <=1 
C123: x3+x16-y3_16 <=1 
C124: x3+x17 <=1 
C125: x3+x18-y3_18 <=1 
C126: x3+x23-y3_23 <=1 
C127: x3+x25 <=1 
C128: x3+x32 <=1 
C129: x3+x34 <=1 
C130: x3+x37-y3_37 <=1 
C131: x3+x39-y3_39 <=1 
C132: x3+x40 <=1 
C133: x3+x43-y3_43 <=1 
C134: x3+x44-y3_44 <=1 
C135: x3+x45 <=1 
C136: x3+x46-y3_46 <=1 
C137: x3+x48 <=1 
C138: x3+x50-y3_50 <=1 
C139: x3+x52 <=1 
C140: x3+x53 <=1 
C141: x3+x54 <=1 
C142: x3+x55-y3_55 <=1 
C143: x3+x56-y3_56 <=1 
C144: x3+x58-y3_58 <=1 
C145: x3+x60 <=1 
C146: x3+x61 <=1 
C147: x3+x62-y3_62 <=1 
C148: x4+x5-y4_5 <=1 
C149: x4+x8-y4_8 <=1 
C150: x4+x10-y4_10 <=1 
C151: x4+x11-y4_11 <=1 
C152: x4+x14-y4_14 <=1 
C153: x4+x15 <=1 
C154: x4+x18-y4_18 <=1 
C155: x4+x19 <=1 
C156: x4+x29-y4_29 <=1 
C157: x4+x31 <=1 
C158: x4+x33-y4_33 <=1 
C159: x4+x35-y4_35 <=1 
C160: x4+x36 <=1 
C161: x4+x41 <=1 
C162: x4+x42 <=1 
C163: x4+x43 <=1 
C164: x4+x45-y4_45 <=1 
C165: x4+x46 <=1 
C166: x4+x48 <=1 
C167: x4+x49 <=1 
C168: x4+x50-y4_50 <=1 
C169: x4+x51-y4_51 <=1 
C170: x4+x52-y4_52 <=1 
C171: x4+x53-y4_53 <=1 
C172: x4+x55 <=1 
C173: x4+x58-y4_58 <=1 
C174: x4+x59-y4_59 <=1 
C175: x4+x61 <=1 
C176: x4+x62 <=1 
C177: x5+x6-y5_6 <=1 
C178: x5+x8-y5_8 <=1 
C179: x5+x9-y5_9 <=1 
C180: x5+x10 <=1 
C181: x5+x11-y5_11 <=1 
C182: x5+x15-y5_15 <=1 
C183: x5+x17 <=1 
C184: x5+x20-y5_20 <=1 
C185: x5+x21 <=1 
C186: x5+x22-y5_22 <=1 
C187: x5+x23-y5_23 <=1 
C188: x5+x24 <=1 
C189: x5+x25 <=1 
C190: x5+x26 <=1 
C191: x5+x27 <=1 
C192: x5+x29-y5_29 <=1 
C193: x5+x30 <=1 
C194: x5+x31 <=1 
C195: x5+x35-y5_35 <=1 
C196: x5+x37-y5_37 <=1 
C197: x5+x38-y5_38 <=1 
C198: x5+x40 <=1 
C199: x5+x41 <=1 
C200: x5+x42 <=1 
C201: x5+x44 <=1 
C202: x5+x45-y5_45 <=1 
C203: x5+x46 <=1 
C204: x5+x47-y5_47 <=1 
C205: x5+x49 <=1 
C206: x5+x50 <=1 
C207: x5+x51 <=1 
C208: x5+x52 <=1 
C209: x5+x54 <=1 
C210: x5+x57 <=1 
C211: x5+x58-y5_58 <=1 
C212: x5+x59 <=1 
C213: x5+x60-y5_60 <=1 
C214: x5+x61 <=1 
C215: x6+x7 <=1 
C216: x6+x8-y6_8 <=1 
C217: x6+x12 <=1 
C218: x6+x13-y6_13 <=1 
C219: x6+x15-y6_15 <=1 
C220: x6+x16 <=1 
C221: x6+x19 <=1 
C222: x6+x21-y6_21 <=1 
C223: x6+x28-y6_28 <=1 
C224: x6+x30-y6_30 <=1 
C225: x6+x32-y6_32 <=1 
C226: x6+x33 <=1 
C227: x6+x34-y6_34 <=1 
C228: x6+x36 <=1 
C229: x6+x37-y6_37 <=1 
C230: x6+x38 <=1 
C231: x6+x39-y6_39 <=1 
C232: x6+x40-y6_40 <=1 
C233: x6+x41-y6_41 <=1 
C234: x6+x42-y6_42 <=1 
C235: x6+x43-y6_43 <=1 
C236: x6+x45 <=1 
C237: x6+x46-y6_46 <=1 
C238: x6+x47 <=1 
C239: x6+x49-y6_49 <=1 
C240: x6+x52-y6_52 <=1 
C241: x6+x53-y6_53 <=1 
C242: x6+x54-y6_54 <=1 
C243: x6+x55 <=1 
C244: x6+x58 <=1 
C245: x6+x61-y6_61 <=1 
C246: x7+x8 <=1 
C247: x7+x9 <=1 
C248: x7+x10-y7_10 <=1 
C249: x7+x11 <=1 
C250: x7+x13 <=1 
C251: x7+x14-y7_14 <=1 
C252: x7+x16-y7_16 <=1 
C253: x7+x17 <=1 
C254: x7+x18 <=1 
C255: x7+x19-y7_19 <=1 
C256: x7+x22-y7_22 <=1 
C257: x7+x24 <=1 
C258: x7+x25 <=1 
C259: x7+x29 <=1 
C260: x7+x30 <=1 
C261: x7+x31 <=1 
C262: x7+x35 <=1 
C263: x7+x38 <=1 
C264: x7+x40 <=1 
C265: x7+x41 <=1 
C266: x7+x42-y7_42 <=1 
C267: x7+x44 <=1 
C268: x7+x45-y7_45 <=1 
C269: x7+x46 <=1 
C270: x7+x47-y7_47 <=1 
C271: x7+x49 <=1 
C272: x7+x50-y7_50 <=1 
C273: x7+x51-y7_51 <=1 
C274: x7+x53 <=1 
C275: x7+x54 <=1 
C276: x7+x55 <=1 
C277: x7+x62 <=1 
C278: x8+x9-y8_9 <=1 
C279: x8+x11 <=1 
C280: x8+x12 <=1 
C281: x8+x13 <=1 
C282: x8+x14-y8_14 <=1 
C283: x8+x15-y8_15 <=1 
C284: x8+x17 <=1 
C285: x8+x18-y8_18 <=1 
C286: x8+x24 <=1 
C287: x8+x26-y8_26 <=1 
C288: x8+x27-y8_27 <=1 
C289: x8+x28 <=1 
C290: x8+x29-y8_29 <=1 
C291: x8+x31 <=1 
C292: x8+x32-y8_32 <=1 
C293: x8+x33 <=1 
C294: x8+x34 <=1 
C295: x8+x35-y8_35 <=1 
C296: x8+x37-y8_37 <=1 
C297: x8+x40 <=1 
C298: x8+x41-y8_41 <=1 
C299: x8+x45-y8_45 <=1 
C300: x8+x47-y8_47 <=1 
C301: x8+x50 <=1 
C302: x8+x52 <=1 
C303: x8+x53 <=1 
C304: x8+x54-y8_54 <=1 
C305: x8+x55-y8_55 <=1 
C306: x8+x57 <=1 
C307: x8+x58 <=1 
C308: x8+x59 <=1 
C309: x8+x61-y8_61 <=1 
C310: x8+x62 <=1 
C311: x9+x10 <=1 
C312: x9+x11 <=1 
C313: x9+x12 <=1 
C314: x9+x15-y9_15 <=1 
C315: x9+x16-y9_16 <=1 
C316: x9+x17-y9_17 <=1 
C317: x9+x18-y9_18 <=1 
C318: x9+x19-y9_19 <=1 
C319: x9+x20-y9_20 <=1 
C320: x9+x21-y9_21 <=1 
C321: x9+x23-y9_23 <=1 
C322: x9+x26 <=1 
C323: x9+x29-y9_29 <=1 
C324: x9+x30-y9_30 <=1 
C325: x9+x34-y9_34 <=1 
C326: x9+x35 <=1 
C327: x9+x37 <=1 
C328: x9+x38 <=1 
C329: x9+x39-y9_39 <=1 
C330: x9+x40 <=1 
C331: x9+x43-y9_43 <=1 
C332: x9+x46-y9_46 <=1 
C333: x9+x47 <=1 
C334: x9+x48-y9_48 <=1 
C335: x9+x49-y9_49 <=1 
C336: x9+x51-y9_51 <=1 
C337: x9+x53 <=1 
C338: x9+x56-y9_56 <=1 
C339: x9+x57-y9_57 <=1 
C340: x9+x58-y9_58 <=1 
C341: x9+x59-y9_59 <=1 
C342: x9+x61 <=1 
C343: x10+x12-y10_12 <=1 
C344: x10+x13-y10_13 <=1 
C345: x10+x14 <=1 
C346: x10+x15-y10_15 <=1 
C347: x10+x17 <=1 
C348: x10+x18-y10_18 <=1 
C349: x10+x20 <=1 
C350: x10+x21 <=1 
C351: x10+x23-y10_23 <=1 
C352: x10+x24-y10_24 <=1 
C353: x10+x25-y10_25 <=1 
C354: x10+x27-y10_27 <=1 
C355: x10+x28 <=1 
C356: x10+x29 <=1 
C357: x10+x30-y10_30 <=1 
C358: x10+x31-y10_31 <=1 
C359: x10+x35 <=1 
C360: x10+x39 <=1 
C361: x10+x43 <=1 
C362: x10+x46 <=1 
C363: x10+x51-y10_51 <=1 
C364: x10+x52 <=1 
C365: x10+x53-y10_53 <=1 
C366: x10+x54-y10_54 <=1 
C367: x10+x55 <=1 
C368: x10+x56 <=1 
C369: x10+x57-y10_57 <=1 
C370: x10+x59 <=1 
C371: x10+x61 <=1 
C372: x11+x13 <=1 
C373: x11+x14 <=1 
C374: x11+x15 <=1 
C375: x11+x16 <=1 
C376: x11+x17 <=1 
C377: x11+x18 <=1 
C378: x11+x19-y11_19 <=1 
C379: x11+x21 <=1 
C380: x11+x22 <=1 
C381: x11+x23 <=1 
C382: x11+x24-y11_24 <=1 
C383: x11+x25 <=1 
C384: x11+x26-y11_26 <=1 
C385: x11+x27 <=1 
C386: x11+x29-y11_29 <=1 
C387: x11+x32-y11_32 <=1 
C388: x11+x33-y11_33 <=1 
C389: x11+x35-y11_35 <=1 
C390: x11+x36-y11_36 <=1 
C391: x11+x37 <=1 
C392: x11+x38-y11_38 <=1 
C393: x11+x41-y11_41 <=1 
C394: x11+x43 <=1 
C395: x11+x44-y11_44 <=1 
C396: x11+x48-y11_48 <=1 
C397: x11+x50-y11_50 <=1 
C398: x11+x51 <=1 
C399: x11+x56-y11_56 <=1 
C400: x11+x59 <=1 
C401: x11+x62 <=1 
C402: x12+x13-y12_13 <=1 
C403: x12+x14-y12_14 <=1 
C404: x12+x15-y12_15 <=1 
C405: x12+x17-y12_17 <=1 
C406: x12+x18 <=1 
C407: x12+x19 <=1 
C408: x12+x22 <=1 
C409: x12+x23 <=1 
C410: x12+x26 <=1 
C411: x12+x32-y12_32 <=1 
C412: x12+x33 <=1 
C413: x12+x35-y12_35 <=1 
C414: x12+x37-y12_37 <=1 
C415: x12+x40 <=1 
C416: x12+x42-y12_42 <=1 
C417: x12+x46 <=1 
C418: x12+x48-y12_48 <=1 
C419: x12+x49-y12_49 <=1 
C420: x12+x52 <=1 
C421: x12+x54 <=1 
C422: x12+x56-y12_56 <=1 
C423: x12+x59-y12_59 <=1 
C424: x12+x62-y12_62 <=1 
C425: x13+x14 <=1 
C426: x13+x15 <=1 
C427: x13+x17-y13_17 <=1 
C428: x13+x18 <=1 
C429: x13+x19-y13_19 <=1 
C430: x13+x21 <=1 
C431: x13+x23 <=1 
C432: x13+x25 <=1 
C433: x13+x27 <=1 
C434: x13+x29-y13_29 <=1 
C435: x13+x30-y13_30 <=1 
C436: x13+x32-y13_32 <=1 
C437: x13+x33 <=1 
C438: x13+x35 <=1 
C439: x13+x36 <=1 
C440: x13+x37-y13_37 <=1 
C441: x13+x38 <=1 
C442: x13+x40 <=1 
C443: x13+x44-y13_44 <=1 
C444: x13+x45 <=1 
C445: x13+x46 <=1 
C446: x13+x47-y13_47 <=1 
C447: x13+x48 <=1 
C448: x13+x49 <=1 
C449: x13+x50-y13_50 <=1 
C450: x13+x52-y13_52 <=1 
C451: x13+x53-y13_53 <=1 
C452: x13+x56-y13_56 <=1 
C453: x13+x57 <=1 
C454: x13+x61-y13_61 <=1 
C455: x14+x15-y14_15 <=1 
C456: x14+x16 <=1 
C457: x14+x19 <=1 
C458: x14+x20-y14_20 <=1 
C459: x14+x21-y14_21 <=1 
C460: x14+x24-y14_24 <=1 
C461: x14+x25 <=1 
C462: x14+x26 <=1 
C463: x14+x28 <=1 
C464: x14+x29 <=1 
C465: x14+x30 <=1 
C466: x14+x31 <=1 
C467: x14+x32-y14_32 <=1 
C468: x14+x33-y14_33 <=1 
C469: x14+x35 <=1 
C470: x14+x37-y14_37 <=1 
C471: x14+x38-y14_38 <=1 
C472: x14+x42 <=1 
C473: x14+x43 <=1 
C474: x14+x44-y14_44 <=1 
C475: x14+x45 <=1 
C476: x14+x46 <=1 
C477: x14+x47-y14_47 <=1 
C478: x14+x48 <=1 
C479: x14+x49 <=1 
C480: x14+x51 <=1 
C481: x14+x53 <=1 
C482: x14+x56 <=1 
C483: x14+x57-y14_57 <=1 
C484: x14+x59 <=1 
C485: x14+x61-y14_61 <=1 
C486: x14+x62-y14_62 <=1 
C487: x15+x16 <=1 
C488: x15+x17-y15_17 <=1 
C489: x15+x18 <=1 
C490: x15+x22-y15_22 <=1 
C491: x15+x23-y15_23 <=1 
C492: x15+x24 <=1 
C493: x15+x25-y15_25 <=1 
C494: x15+x26-y15_26 <=1 
C495: x15+x27 <=1 
C496: x15+x29-y15_29 <=1 
C497: x15+x31 <=1 
C498: x15+x32 <=1 
C499: x15+x34-y15_34 <=1 
C500: x15+x36 <=1 
C501: x15+x37 <=1 
C502: x15+x38 <=1 
C503: x15+x39 <=1 
C504: x15+x41-y15_41 <=1 
C505: x15+x43 <=1 
C506: x15+x51-y15_51 <=1 
C507: x15+x52 <=1 
C508: x15+x53 <=1 
C509: x15+x54-y15_54 <=1 
C510: x15+x57 <=1 
C511: x15+x58-y15_58 <=1 
C512: x15+x59-y15_59 <=1 
C513: x15+x62-y15_62 <=1 
C514: x16+x17-y16_17 <=1 
C515: x16+x18 <=1 
C516: x16+x21-y16_21 <=1 
C517: x16+x22 <=1 
C518: x16+x29-y16_29 <=1 
C519: x16+x30 <=1 
C520: x16+x31-y16_31 <=1 
C521: x16+x32-y16_32 <=1 
C522: x16+x35-y16_35 <=1 
C523: x16+x36-y16_36 <=1 
C524: x16+x37-y16_37 <=1 
C525: x16+x39 <=1 
C526: x16+x40 <=1 
C527: x16+x41-y16_41 <=1 
C528: x16+x43-y16_43 <=1 
C529: x16+x45 <=1 
C530: x16+x47 <=1 
C531: x16+x48-y16_48 <=1 
C532: x16+x49-y16_49 <=1 
C533: x16+x50-y16_50 <=1 
C534: x16+x52 <=1 
C535: x16+x56 <=1 
C536: x16+x60 <=1 
C537: x16+x61 <=1 
C538: x16+x62-y16_62 <=1 
C539: x17+x18 <=1 
C540: x17+x21 <=1 
C541: x17+x23-y17_23 <=1 
C542: x17+x26-y17_26 <=1 
C543: x17+x27 <=1 
C544: x17+x29 <=1 
C545: x17+x32 <=1 
C546: x17+x34-y17_34 <=1 
C547: x17+x35-y17_35 <=1 
C548: x17+x36 <=1 
C549: x17+x43-y17_43 <=1 
C550: x17+x44-y17_44 <=1 
C551: x17+x45 <=1 
C552: x17+x47-y17_47 <=1 
C553: x17+x48 <=1 
C554: x17+x49 <=1 
C555: x17+x50-y17_50 <=1 
C556: x17+x51 <=1 
C557: x17+x54 <=1 
C558: x17+x55-y17_55 <=1 
C559: x17+x59-y17_59 <=1 
C560: x17+x60-y17_60 <=1 
C561: x17+x61-y17_61 <=1 
C562: x18+x22 <=1 
C563: x18+x23-y18_23 <=1 
C564: x18+x24 <=1 
C565: x18+x26 <=1 
C566: x18+x27 <=1 
C567: x18+x28 <=1 
C568: x18+x32 <=1 
C569: x18+x33-y18_33 <=1 
C570: x18+x36-y18_36 <=1 
C571: x18+x37-y18_37 <=1 
C572: x18+x39 <=1 
C573: x18+x40-y18_40 <=1 
C574: x18+x42 <=1 
C575: x18+x43 <=1 
C576: x18+x44-y18_44 <=1 
C577: x18+x45-y18_45 <=1 
C578: x18+x46-y18_46 <=1 
C579: x18+x49 <=1 
C580: x18+x51 <=1 
C581: x18+x52-y18_52 <=1 
C582: x18+x53-y18_53 <=1 
C583: x18+x54 <=1 
C584: x18+x55-y18_55 <=1 
C585: x18+x57-y18_57 <=1 
C586: x18+x58 <=1 
C587: x18+x60-y18_60 <=1 
C588: x18+x62-y18_62 <=1 
C589: x19+x20-y19_20 <=1 
C590: x19+x22 <=1 
C591: x19+x28-y19_28 <=1 
C592: x19+x31-y19_31 <=1 
C593: x19+x33-y19_33 <=1 
C594: x19+x34-y19_34 <=1 
C595: x19+x35-y19_35 <=1 
C596: x19+x36 <=1 
C597: x19+x37 <=1 
C598: x19+x38 <=1 
C599: x19+x39-y19_39 <=1 
C600: x19+x41 <=1 
C601: x19+x42 <=1 
C602: x19+x45 <=1 
C603: x19+x47 <=1 
C604: x19+x48 <=1 
C605: x19+x52 <=1 
C606: x19+x53 <=1 
C607: x19+x54-y19_54 <=1 
C608: x19+x55 <=1 
C609: x19+x56 <=1 
C610: x19+x58-y19_58 <=1 
C611: x19+x59 <=1 
C612: x19+x60 <=1 
C613: x19+x61 <=1 
C614: x19+x62 <=1 
C615: x20+x22-y20_22 <=1 
C616: x20+x24-y20_24 <=1 
C617: x20+x25-y20_25 <=1 
C618: x20+x26-y20_26 <=1 
C619: x20+x27-y20_27 <=1 
C620: x20+x28-y20_28 <=1 
C621: x20+x29 <=1 
C622: x20+x33 <=1 
C623: x20+x35-y20_35 <=1 
C624: x20+x36 <=1 
C625: x20+x37 <=1 
C626: x20+x38 <=1 
C627: x20+x39 <=1 
C628: x20+x42-y20_42 <=1 
C629: x20+x43-y20_43 <=1 
C630: x20+x45 <=1 
C631: x20+x46-y20_46 <=1 
C632: x20+x48-y20_48 <=1 
C633: x20+x50-y20_50 <=1 
C634: x20+x52 <=1 
C635: x20+x53 <=1 
C636: x20+x54-y20_54 <=1 
C637: x20+x55-y20_55 <=1 
C638: x20+x56-y20_56 <=1 
C639: x20+x61-y20_61 <=1 
C640: x21+x23-y21_23 <=1 
C641: x21+x25-y21_25 <=1 
C642: x21+x29 <=1 
C643: x21+x30 <=1 
C644: x21+x32-y21_32 <=1 
C645: x21+x34 <=1 
C646: x21+x35 <=1 
C647: x21+x36-y21_36 <=1 
C648: x21+x37-y21_37 <=1 
C649: x21+x39 <=1 
C650: x21+x40 <=1 
C651: x21+x42 <=1 
C652: x21+x44-y21_44 <=1 
C653: x21+x45-y21_45 <=1 
C654: x21+x46 <=1 
C655: x21+x48 <=1 
C656: x21+x49-y21_49 <=1 
C657: x21+x53 <=1 
C658: x21+x54-y21_54 <=1 
C659: x21+x55-y21_55 <=1 
C660: x21+x56 <=1 
C661: x21+x57 <=1 
C662: x21+x58 <=1 
C663: x21+x61-y21_61 <=1 
C664: x21+x62 <=1 
C665: x22+x23-y22_23 <=1 
C666: x22+x24-y22_24 <=1 
C667: x22+x26 <=1 
C668: x22+x27 <=1 
C669: x22+x28 <=1 
C670: x22+x30 <=1 
C671: x22+x33-y22_33 <=1 
C672: x22+x36 <=1 
C673: x22+x42 <=1 
C674: x22+x44-y22_44 <=1 
C675: x22+x46 <=1 
C676: x22+x49 <=1 
C677: x22+x51-y22_51 <=1 
C678: x22+x52-y22_52 <=1 
C679: x22+x53-y22_53 <=1 
C680: x22+x54-y22_54 <=1 
C681: x22+x55 <=1 
C682: x22+x57-y22_57 <=1 
C683: x22+x58-y22_58 <=1 
C684: x22+x59-y22_59 <=1 
C685: x22+x60 <=1 
C686: x22+x61 <=1 
C687: x23+x27-y23_27 <=1 
C688: x23+x30-y23_30 <=1 
C689: x23+x31 <=1 
C690: x23+x32 <=1 
C691: x23+x34 <=1 
C692: x23+x35 <=1 
C693: x23+x37 <=1 
C694: x23+x38 <=1 
C695: x23+x43 <=1 
C696: x23+x44 <=1 
C697: x23+x45 <=1 
C698: x23+x46-y23_46 <=1 
C699: x23+x47 <=1 
C700: x23+x50-y23_50 <=1 
C701: x23+x52 <=1 
C702: x23+x53 <=1 
C703: x23+x54 <=1 
C704: x23+x62 <=1 
C705: x24+x25-y24_25 <=1 
C706: x24+x27 <=1 
C707: x24+x28 <=1 
C708: x24+x32 <=1 
C709: x24+x33 <=1 
C710: x24+x34 <=1 
C711: x24+x35-y24_35 <=1 
C712: x24+x36 <=1 
C713: x24+x37-y24_37 <=1 
C714: x24+x41-y24_41 <=1 
C715: x24+x42 <=1 
C716: x24+x44 <=1 
C717: x24+x46-y24_46 <=1 
C718: x24+x47 <=1 
C719: x24+x49-y24_49 <=1 
C720: x24+x50 <=1 
C721: x24+x51-y24_51 <=1 
C722: x24+x54 <=1 
C723: x24+x56 <=1 
C724: x24+x58-y24_58 <=1 
C725: x24+x59 <=1 
C726: x24+x60 <=1 
C727: x24+x61-y24_61 <=1 
C728: x24+x62-y24_62 <=1 
C729: x25+x26-y25_26 <=1 
C730: x25+x30 <=1 
C731: x25+x31-y25_31 <=1 
C732: x25+x32-y25_32 <=1 
C733: x25+x35-y25_35 <=1 
C734: x25+x36 <=1 
C735: x25+x37-y25_37 <=1 
C736: x25+x38 <=1 
C737: x25+x39-y25_39 <=1 
C738: x25+x42 <=1 
C739: x25+x44-y25_44 <=1 
C740: x25+x46 <=1 
C741: x25+x48-y25_48 <=1 
C742: x25+x51 <=1 
C743: x25+x53-y25_53 <=1 
C744: x25+x54-y25_54 <=1 
C745: x25+x58 <=1 
C746: x25+x59-y25_59 <=1 
C747: x25+x60-y25_60 <=1 
C748: x25+x61 <=1 
C749: x25+x62-y25_62 <=1 
C750: x26+x29-y26_29 <=1 
C751: x26+x30 <=1 
C752: x26+x32-y26_32 <=1 
C753: x26+x33 <=1 
C754: x26+x37-y26_37 <=1 
C755: x26+x39 <=1 
C756: x26+x40 <=1 
C757: x26+x44 <=1 
C758: x26+x45-y26_45 <=1 
C759: x26+x48-y26_48 <=1 
C760: x26+x51 <=1 
C761: x26+x52-y26_52 <=1 
C762: x26+x53-y26_53 <=1 
C763: x26+x54 <=1 
C764: x26+x58 <=1 
C765: x26+x59 <=1 
C766: x26+x60-y26_60 <=1 
C767: x26+x62-y26_62 <=1 
C768: x27+x29 <=1 
C769: x27+x30 <=1 
C770: x27+x32-y27_32 <=1 
C771: x27+x34-y27_34 <=1 
C772: x27+x35 <=1 
C773: x27+x37 <=1 
C774: x27+x39 <=1 
C775: x27+x40-y27_40 <=1 
C776: x27+x41 <=1 
C777: x27+x42-y27_42 <=1 
C778: x27+x45-y27_45 <=1 
C779: x27+x47 <=1 
C780: x27+x50 <=1 
C781: x27+x52-y27_52 <=1 
C782: x27+x53-y27_53 <=1 
C783: x27+x54-y27_54 <=1 
C784: x27+x55 <=1 
C785: x27+x57 <=1 
C786: x27+x58-y27_58 <=1 
C787: x27+x59-y27_59 <=1 
C788: x27+x60-y27_60 <=1 
C789: x27+x61 <=1 
C790: x27+x62-y27_62 <=1 
C791: x28+x29-y28_29 <=1 
C792: x28+x32 <=1 
C793: x28+x33 <=1 
C794: x28+x34-y28_34 <=1 
C795: x28+x35-y28_35 <=1 
C796: x28+x37 <=1 
C797: x28+x39-y28_39 <=1 
C798: x28+x40 <=1 
C799: x28+x41-y28_41 <=1 
C800: x28+x42-y28_42 <=1 
C801: x28+x44 <=1 
C802: x28+x46 <=1 
C803: x28+x48 <=1 
C804: x28+x53-y28_53 <=1 
C805: x28+x54-y28_54 <=1 
C806: x28+x55-y28_55 <=1 
C807: x28+x56-y28_56 <=1 
C808: x28+x57-y28_57 <=1 
C809: x28+x58-y28_58 <=1 
C810: x28+x59-y28_59 <=1 
C811: x28+x60-y28_60 <=1 
C812: x28+x61 <=1 
C813: x28+x62-y28_62 <=1 
C814: x29+x33 <=1 
C815: x29+x35-y29_35 <=1 
C816: x29+x37 <=1 
C817: x29+x38 <=1 
C818: x29+x39-y29_39 <=1 
C819: x29+x40-y29_40 <=1 
C820: x29+x44 <=1 
C821: x29+x47-y29_47 <=1 
C822: x29+x48 <=1 
C823: x29+x50-y29_50 <=1 
C824: x29+x52-y29_52 <=1 
C825: x29+x54-y29_54 <=1 
C826: x29+x56-y29_56 <=1 
C827: x29+x59-y29_59 <=1 
C828: x29+x60 <=1 
C829: x29+x61 <=1 
C830: x30+x31 <=1 
C831: x30+x33-y30_33 <=1 
C832: x30+x34 <=1 
C833: x30+x35-y30_35 <=1 
C834: x30+x37-y30_37 <=1 
C835: x30+x38-y30_38 <=1 
C836: x30+x39 <=1 
C837: x30+x40 <=1 
C838: x30+x41 <=1 
C839: x30+x42 <=1 
C840: x30+x45-y30_45 <=1 
C841: x30+x46-y30_46 <=1 
C842: x30+x47 <=1 
C843: x30+x49-y30_49 <=1 
C844: x30+x51 <=1 
C845: x30+x54-y30_54 <=1 
C846: x30+x56-y30_56 <=1 
C847: x30+x57-y30_57 <=1 
C848: x30+x58-y30_58 <=1 
C849: x30+x59 <=1 
C850: x30+x60 <=1 
C851: x30+x61 <=1 
C852: x31+x32-y31_32 <=1 
C853: x31+x34 <=1 
C854: x31+x36 <=1 
C855: x31+x38 <=1 
C856: x31+x39 <=1 
C857: x31+x41 <=1 
C858: x31+x43 <=1 
C859: x31+x44 <=1 
C860: x31+x45-y31_45 <=1 
C861: x31+x47 <=1 
C862: x31+x48-y31_48 <=1 
C863: x31+x49-y31_49 <=1 
C864: x31+x51 <=1 
C865: x31+x52 <=1 
C866: x31+x53-y31_53 <=1 
C867: x31+x54-y31_54 <=1 
C868: x31+x56-y31_56 <=1 
C869: x32+x33 <=1 
C870: x32+x34 <=1 
C871: x32+x35-y32_35 <=1 
C872: x32+x39-y32_39 <=1 
C873: x32+x41-y32_41 <=1 
C874: x32+x44 <=1 
C875: x32+x46 <=1 
C876: x32+x48-y32_48 <=1 
C877: x32+x51-y32_51 <=1 
C878: x32+x52 <=1 
C879: x32+x53 <=1 
C880: x32+x54 <=1 
C881: x32+x55 <=1 
C882: x32+x58 <=1 
C883: x32+x59 <=1 
C884: x32+x61-y32_61 <=1 
C885: x33+x35 <=1 
C886: x33+x36-y33_36 <=1 
C887: x33+x39-y33_39 <=1 
C888: x33+x40 <=1 
C889: x33+x41 <=1 
C890: x33+x45-y33_45 <=1 
C891: x33+x47-y33_47 <=1 
C892: x33+x49-y33_49 <=1 
C893: x33+x51 <=1 
C894: x33+x52-y33_52 <=1 
C895: x33+x54-y33_54 <=1 
C896: x33+x56-y33_56 <=1 
C897: x33+x60 <=1 
C898: x33+x61 <=1 
C899: x34+x35 <=1 
C900: x34+x36-y34_36 <=1 
C901: x34+x37 <=1 
C902: x34+x38-y34_38 <=1 
C903: x34+x39-y34_39 <=1 
C904: x34+x42 <=1 
C905: x34+x43-y34_43 <=1 
C906: x34+x46 <=1 
C907: x34+x47-y34_47 <=1 
C908: x34+x48 <=1 
C909: x34+x49 <=1 
C910: x34+x51 <=1 
C911: x34+x52-y34_52 <=1 
C912: x34+x54 <=1 
C913: x34+x55 <=1 
C914: x34+x56 <=1 
C915: x34+x57-y34_57 <=1 
C916: x34+x58 <=1 
C917: x34+x60-y34_60 <=1 
C918: x34+x62-y34_62 <=1 
C919: x35+x36 <=1 
C920: x35+x38 <=1 
C921: x35+x40-y35_40 <=1 
C922: x35+x42 <=1 
C923: x35+x43-y35_43 <=1 
C924: x35+x44 <=1 
C925: x35+x47 <=1 
C926: x35+x48-y35_48 <=1 
C927: x35+x50 <=1 
C928: x35+x52 <=1 
C929: x35+x53-y35_53 <=1 
C930: x35+x54 <=1 
C931: x35+x55 <=1 
C932: x35+x57-y35_57 <=1 
C933: x35+x58 <=1 
C934: x35+x59-y35_59 <=1 
C935: x35+x60 <=1 
C936: x35+x61-y35_61 <=1 
C937: x35+x62 <=1 
C938: x36+x37 <=1 
C939: x36+x39 <=1 
C940: x36+x41 <=1 
C941: x36+x43 <=1 
C942: x36+x45 <=1 
C943: x36+x46-y36_46 <=1 
C944: x36+x47 <=1 
C945: x36+x52 <=1 
C946: x36+x55 <=1 
C947: x36+x56-y36_56 <=1 
C948: x36+x57 <=1 
C949: x36+x58 <=1 
C950: x36+x62-y36_62 <=1 
C951: x37+x39 <=1 
C952: x37+x40 <=1 
C953: x37+x41 <=1 
C954: x37+x42-y37_42 <=1 
C955: x37+x43-y37_43 <=1 
C956: x37+x44 <=1 
C957: x37+x47 <=1 
C958: x37+x52 <=1 
C959: x37+x54-y37_54 <=1 
C960: x37+x55-y37_55 <=1 
C961: x37+x56 <=1 
C962: x37+x58 <=1 
C963: x37+x59 <=1 
C964: x37+x62 <=1 
C965: x38+x44 <=1 
C966: x38+x45-y38_45 <=1 
C967: x38+x48 <=1 
C968: x38+x51-y38_51 <=1 
C969: x38+x54 <=1 
C970: x38+x56-y38_56 <=1 
C971: x38+x57-y38_57 <=1 
C972: x38+x58-y38_58 <=1 
C973: x38+x59 <=1 
C974: x38+x61 <=1 
C975: x38+x62 <=1 
C976: x39+x43-y39_43 <=1 
C977: x39+x44-y39_44 <=1 
C978: x39+x45 <=1 
C979: x39+x47 <=1 
C980: x39+x49-y39_49 <=1 
C981: x39+x50 <=1 
C982: x39+x53 <=1 
C983: x39+x54-y39_54 <=1 
C984: x39+x55-y39_55 <=1 
C985: x39+x61 <=1 
C986: x39+x62-y39_62 <=1 
C987: x40+x41-y40_41 <=1 
C988: x40+x42 <=1 
C989: x40+x45-y40_45 <=1 
C990: x40+x46-y40_46 <=1 
C991: x40+x49 <=1 
C992: x40+x51 <=1 
C993: x40+x52-y40_52 <=1 
C994: x40+x53 <=1 
C995: x40+x54-y40_54 <=1 
C996: x40+x55-y40_55 <=1 
C997: x40+x57-y40_57 <=1 
C998: x40+x58-y40_58 <=1 
C999: x40+x59-y40_59 <=1 
C1000: x40+x60 <=1 
C1001: x40+x61-y40_61 <=1 
C1002: x40+x62-y40_62 <=1 
C1003: x41+x42 <=1 
C1004: x41+x43-y41_43 <=1 
C1005: x41+x44 <=1 
C1006: x41+x45-y41_45 <=1 
C1007: x41+x51-y41_51 <=1 
C1008: x41+x53 <=1 
C1009: x41+x54-y41_54 <=1 
C1010: x41+x55 <=1 
C1011: x41+x57 <=1 
C1012: x41+x58 <=1 
C1013: x41+x59 <=1 
C1014: x41+x61 <=1 
C1015: x42+x46-y42_46 <=1 
C1016: x42+x47 <=1 
C1017: x42+x49 <=1 
C1018: x42+x50-y42_50 <=1 
C1019: x42+x52 <=1 
C1020: x42+x53-y42_53 <=1 
C1021: x42+x55 <=1 
C1022: x42+x56-y42_56 <=1 
C1023: x42+x58-y42_58 <=1 
C1024: x42+x59-y42_59 <=1 
C1025: x42+x60-y42_60 <=1 
C1026: x43+x47-y43_47 <=1 
C1027: x43+x49 <=1 
C1028: x43+x50-y43_50 <=1 
C1029: x43+x52-y43_52 <=1 
C1030: x43+x53 <=1 
C1031: x43+x55 <=1 
C1032: x43+x57-y43_57 <=1 
C1033: x43+x60 <=1 
C1034: x43+x61-y43_61 <=1 
C1035: x43+x62-y43_62 <=1 
C1036: x44+x46 <=1 
C1037: x44+x47 <=1 
C1038: x44+x48 <=1 
C1039: x44+x50-y44_50 <=1 
C1040: x44+x52-y44_52 <=1 
C1041: x44+x55-y44_55 <=1 
C1042: x44+x56-y44_56 <=1 
C1043: x44+x57 <=1 
C1044: x44+x58 <=1 
C1045: x44+x59 <=1 
C1046: x44+x60-y44_60 <=1 
C1047: x44+x61-y44_61 <=1 
C1048: x45+x47-y45_47 <=1 
C1049: x45+x48-y45_48 <=1 
C1050: x45+x49 <=1 
C1051: x45+x50-y45_50 <=1 
C1052: x45+x51 <=1 
C1053: x45+x54-y45_54 <=1 
C1054: x45+x56-y45_56 <=1 
C1055: x45+x59-y45_59 <=1 
C1056: x45+x61 <=1 
C1057: x45+x62-y45_62 <=1 
C1058: x46+x47-y46_47 <=1 
C1059: x46+x48 <=1 
C1060: x46+x49 <=1 
C1061: x46+x50 <=1 
C1062: x46+x54-y46_54 <=1 
C1063: x46+x55 <=1 
C1064: x46+x57 <=1 
C1065: x46+x59-y46_59 <=1 
C1066: x46+x61-y46_61 <=1 
C1067: x47+x50 <=1 
C1068: x47+x52-y47_52 <=1 
C1069: x47+x54 <=1 
C1070: x47+x61 <=1 
C1071: x47+x62-y47_62 <=1 
C1072: x48+x49-y48_49 <=1 
C1073: x48+x51 <=1 
C1074: x48+x53 <=1 
C1075: x48+x54-y48_54 <=1 
C1076: x48+x55 <=1 
C1077: x48+x56-y48_56 <=1 
C1078: x48+x58 <=1 
C1079: x48+x59 <=1 
C1080: x48+x62 <=1 
C1081: x49+x53 <=1 
C1082: x49+x56-y49_56 <=1 
C1083: x49+x57-y49_57 <=1 
C1084: x49+x59-y49_59 <=1 
C1085: x49+x60-y49_60 <=1 
C1086: x49+x61 <=1 
C1087: x50+x51 <=1 
C1088: x50+x52 <=1 
C1089: x50+x53 <=1 
C1090: x50+x54 <=1 
C1091: x50+x56 <=1 
C1092: x50+x59 <=1 
C1093: x50+x60-y50_60 <=1 
C1094: x50+x62 <=1 
C1095: x51+x54-y51_54 <=1 
C1096: x51+x55 <=1 
C1097: x51+x56 <=1 
C1098: x51+x58 <=1 
C1099: x51+x59-y51_59 <=1 
C1100: x51+x60-y51_60 <=1 
C1101: x51+x61 <=1 
C1102: x52+x54-y52_54 <=1 
C1103: x52+x55 <=1 
C1104: x52+x56 <=1 
C1105: x52+x57-y52_57 <=1 
C1106: x52+x58-y52_58 <=1 
C1107: x52+x60-y52_60 <=1 
C1108: x52+x61 <=1 
C1109: x52+x62-y52_62 <=1 
C1110: x53+x54 <=1 
C1111: x53+x57 <=1 
C1112: x53+x58-y53_58 <=1 
C1113: x53+x60 <=1 
C1114: x53+x62-y53_62 <=1 
C1115: x54+x55 <=1 
C1116: x54+x58-y54_58 <=1 
C1117: x54+x59 <=1 
C1118: x54+x62-y54_62 <=1 
C1119: x55+x56-y55_56 <=1 
C1120: x55+x57 <=1 
C1121: x55+x58 <=1 
C1122: x55+x61 <=1 
C1123: x55+x62-y55_62 <=1 
C1124: x56+x58-y56_58 <=1 
C1125: x57+x58-y57_58 <=1 
C1126: x57+x61-y57_61 <=1 
C1127: x57+x62-y57_62 <=1 
C1128: x58+x61-y58_61 <=1 
C1129: x59+x61 <=1 
C1130: x59+x62 <=1 

binary
x0
x1
x2
x3
x4
x5
x6
x7
x8
x9
x10
x11
x12
x13
x14
x15
x16
x17
x18
x19
x20
x21
x22
x23
x24
x25
x26
x27
x28
x29
x30
x31
x32
x33
x34
x35
x36
x37
x38
x39
x40
x41
x42
x43
x44
x45
x46
x47
x48
x49
x50
x51
x52
x53
x54
x55
x56
x57
x58
x59
x60
x61
x62
