problem_generation/data/GISP/train/er_n=63_m=1130_p=0.60_SET2_setparam=100.00_alpha=0.50_394.sol
objective value:                                 1180
x4                                                  1 	(obj:100)
x6                                                  1 	(obj:100)
x9                                                  1 	(obj:100)
x17                                                 1 	(obj:100)
x20                                                 1 	(obj:100)
x23                                                 1 	(obj:100)
x25                                                 1 	(obj:100)
x28                                                 1 	(obj:100)
x56                                                 1 	(obj:100)
x57                                                 1 	(obj:100)
x59                                                 1 	(obj:100)
x60                                                 1 	(obj:100)
y28_57                                              1 	(obj:-1)
y9_57                                               1 	(obj:-1)
y28_56                                              1 	(obj:-1)
y6_28                                               1 	(obj:-1)
y9_20                                               1 	(obj:-1)
y20_56                                              1 	(obj:-1)
y17_23                                              1 	(obj:-1)
y20_28                                              1 	(obj:-1)
y25_60                                              1 	(obj:-1)
y25_59                                              1 	(obj:-1)
y17_60                                              1 	(obj:-1)
y28_60                                              1 	(obj:-1)
y9_56                                               1 	(obj:-1)
y17_59                                              1 	(obj:-1)
y28_59                                              1 	(obj:-1)
y9_23                                               1 	(obj:-1)
y9_59                                               1 	(obj:-1)
y9_17                                               1 	(obj:-1)
y4_59                                               1 	(obj:-1)
y20_25                                              1 	(obj:-1)
